 $CONTRL 
COORD=UNIQUE
ICHARG=0
MAXIT=50
MULT=1
RUNTYP=energy
SCFTYP=RHF
UNITS=ANGS
DFTTYP=B3LYP
 $END
 $DFT 
METHOD=GRID
 $END
 $BASIS 
GBASIS=N31
NGAUSS=6
NDFUNC=1
 $END
 $SCF 
DAMP=.F.
DEM=.F.
DIIS=.F.
DIRSCF=.T.
EXTRAP=.T.
RSTRCT=.F.
SHIFT=.F.
SOSCF=.T.
 $END
 $STATPT 
NSTEP=100
 $END
 $GUESS 
GUESS=HUCKEL
 $END
 $ELDENS
IEDEN=1
WHERE=POINTS
IEDINT=1
 $END
 $POINTS
ANGS 7
0 0 0
1 0 0
0.5 0 0
0.7 0 0
0 0.8 0
0 0 0.9
0.5  0.6  0.7
 $END
 $SYSTEM 
MWORDS=200
 $END
 $DATA
 C8H8
C1
C      6.0      3.6667819225   -1.5229958427    1.1827125892 
C      6.0      5.0773267211   -1.2920916769    1.3585966459 
C      6.0      5.4357281876   -0.0159113936    0.6693005452 
C      6.0      3.0776049132   -0.4463638087    0.4567940516 
C      6.0      4.1111728314    0.5187693538    0.1336491313 
C      6.0      5.7406961527   -2.4493111682    1.8556540546 
C      6.0      3.3304669237   -2.8443866855    1.6100846062 
C      6.0      4.6425444410   -3.4900357947    2.0447284974 
H      1.0      6.8011282372   -2.6316069706    1.8671415958 
H      1.0      5.8769404482    0.6991565657    1.3698588862 
H      1.0      2.0606576611   -0.4072424793    0.1043676521 
H      1.0      3.9745189395    1.4135271074   -0.4497976403 
H      1.0      4.5854795879   -3.7964461599    3.0938915493 
H      1.0      2.4016889753   -3.3564219893    1.4275655014 
H      1.0      4.8499167983   -4.3693660973    1.4264490559 
H      1.0      6.1317874405   -0.1920823584   -0.1567592044 
 $END